system = Al
LWAVE   = .FALSE.
LCHARG  = .FALSE. 

ISTART  = 0
ISMEAR  = 1
SIGMA   = 0.2

PREC    = Normal  
ALGO    = Fast
LREAL   = F

ISIF    = 2
EDIFF   = 1E-5
IBRION  = 0

LANGEVIN_GAMMA = 10 # ps^-1

MDALGO  = 3
ISYM    = 0
NSW     = 10000
NBLOCK  = 1

TEBEG   =  1000

POTIM   = 2.0
ENCUT   = 300
